(declare-const X String)
; \u{2E}html\s+IDENTIFYwww\u{2E}ccnnlc\u{2E}comfilename=\u{22}Referer\u{3A}
(assert (str.in_re X (re.++ (str.to_re ".html") (re.+ (re.union (str.to_re " ") (str.to_re "\u{9}") (str.to_re "\u{a}") (str.to_re "\u{c}") (str.to_re "\u{d}"))) (str.to_re "IDENTIFYwww.ccnnlc.com\u{13}filename=\u{22}Referer:\u{a}"))))
; (^0.*[1-9]*)|(^860+)|(^8613)|(\D)|([0-9])
(assert (not (str.in_re X (re.union (re.++ (str.to_re "0") (re.* re.allchar) (re.* (re.range "1" "9"))) (re.++ (str.to_re "86") (re.+ (str.to_re "0"))) (str.to_re "8613") (re.comp (re.range "0" "9")) (re.++ (re.range "0" "9") (str.to_re "\u{a}"))))))
; ^([A-Z]|[a-z]|[0-9])(([A-Z])*(([a-z])*([0-9])*(%)*(&)*(')*(\+)*(-)*(@)*(_)*(\.)*)|(\ )[^  ])+$
(assert (not (str.in_re X (re.++ (re.union (re.range "A" "Z") (re.range "a" "z") (re.range "0" "9")) (re.+ (re.union (re.++ (re.* (re.range "A" "Z")) (re.* (re.range "a" "z")) (re.* (re.range "0" "9")) (re.* (str.to_re "%")) (re.* (str.to_re "&")) (re.* (str.to_re "'")) (re.* (str.to_re "+")) (re.* (str.to_re "-")) (re.* (str.to_re "@")) (re.* (str.to_re "_")) (re.* (str.to_re "."))) (re.++ (str.to_re " ") (re.comp (str.to_re " "))))) (str.to_re "\u{a}")))))
; (\<\?php\s+.*?((\?\>)|$))
(assert (str.in_re X (re.++ (str.to_re "\u{a}<?php") (re.+ (re.union (str.to_re " ") (str.to_re "\u{9}") (str.to_re "\u{a}") (str.to_re "\u{c}") (str.to_re "\u{d}"))) (re.* re.allchar) (str.to_re "?>"))))
(check-sat)
